15
1 0 1
3 0 1
3 2 1
4 0 1
4 2 1
4 3 1
5 2 1
5 3 1
6 1 1
6 2 1
7 1 1
7 3 1
7 5 1
8 0 1
8 5 1
8 7 1
9 1 1
9 3 1
9 4 1
9 6 1
9 7 1
9 8 1
10 1 1
10 2 1
10 3 1
10 5 1
10 6 1
10 7 1
11 1 1
11 3 1
11 4 1
11 5 1
12 1 1
12 3 1
12 5 1
12 6 1
12 10 1
13 3 1
13 7 1
13 9 1
13 10 1
13 11 1
13 12 1
14 1 1
14 5 1
14 6 1
14 7 1
14 8 1
14 9 1
14 11 1
14 13 1
